n_jobs = 6;
n_machines = 6;
job_task_machine = array2d(jobs, tasks, [2, 0, 1, 3, 5, 4, 1, 2, 4, 5, 0, 3, 2, 3, 5, 0, 1, 4, 1, 0, 2, 3, 4, 5, 2, 1, 4, 5, 0, 3, 1, 3, 5, 0, 4, 2]);
job_task_duration = array2d(jobs, tasks, [1, 3, 6, 7, 3, 6, 8, 5, 10, 10, 10, 4, 5, 4, 8, 9, 1, 7, 5, 5, 5, 3, 8, 9, 9, 3, 5, 4, 3, 1, 3, 3, 9, 10, 4, 1]);
deadline = array2d(jobs, 1..3, [64, 5, 4, 60, 0, 0, 39, 2, 1, 65, 1, 2, 62, 3, 0, 54, 5, 5]);
% job_task_start = array2d(jobs, tasks, [0, 1, 16, 22, 38, 49, 0, 8, 13, 28, 38, 48, 1, 6, 10, 18, 27, 30, 8, 13, 22, 29, 37, 45, 13, 22, 25, 41, 48, 52, 13, 16, 19, 28, 45, 49]);
fixed_horizon = 0..66;
% job_task_start_wet = array2d(1..6, 1..6, [5, 10, 13, 19, 26, 58, 27, 35, 43, 65, 75, 85, 0, 5, 9, 17, 26, 32, 0, 5, 10, 15, 18, 56, 15, 35, 53, 75, 85, 89, 5, 9, 17, 26, 39, 53]);
optimal = 0;
